c description: Graph pigeonhole principle formula on fast_gnp_random_graph(10,25,0.9)
c generator: CNFgen (0.9.0)
c copyright: (C) 2012-2020 Massimo Lauria <massimo.lauria@uniroma1.it>
c url: https://massimolauria.net/cnfgen
c
p cnf 218 860
1 2 3 4 5 6 7 8 9 10 11 12 13 14 15 16 17 18 19 0
20 21 22 23 24 25 26 27 28 29 30 31 32 33 34 35 36 37 38 39 40 41 0
42 43 44 45 46 47 48 49 50 51 52 53 54 55 56 57 58 59 60 61 62 63 0
64 65 66 67 68 69 70 71 72 73 74 75 76 77 78 79 80 81 82 83 84 85 0
86 87 88 89 90 91 92 93 94 95 96 97 98 99 100 101 102 103 104 0
105 106 107 108 109 110 111 112 113 114 115 116 117 118 119 120 121 122 123 124 125 126 127 128 0
129 130 131 132 133 134 135 136 137 138 139 140 141 142 143 144 145 146 147 148 149 150 0
151 152 153 154 155 156 157 158 159 160 161 162 163 164 165 166 167 168 169 170 171 172 0
173 174 175 176 177 178 179 180 181 182 183 184 185 186 187 188 189 190 191 192 193 194 195 196 0
197 198 199 200 201 202 203 204 205 206 207 208 209 210 211 212 213 214 215 216 217 218 0
-1 -20 0
-1 -42 0
-1 -64 0
-1 -86 0
-1 -105 0
-1 -129 0
-1 -151 0
-1 -173 0
-1 -197 0
-20 -42 0
-20 -64 0
-20 -86 0
-20 -105 0
-20 -129 0
-20 -151 0
-20 -173 0
-20 -197 0
-42 -64 0
-42 -86 0
-42 -105 0
-42 -129 0
-42 -151 0
-42 -173 0
-42 -197 0
-64 -86 0
-64 -105 0
-64 -129 0
-64 -151 0
-64 -173 0
-64 -197 0
-86 -105 0
-86 -129 0
-86 -151 0
-86 -173 0
-86 -197 0
-105 -129 0
-105 -151 0
-105 -173 0
-105 -197 0
-129 -151 0
-129 -173 0
-129 -197 0
-151 -173 0
-151 -197 0
-173 -197 0
-2 -21 0
-2 -43 0
-2 -65 0
-2 -106 0
-2 -130 0
-2 -152 0
-2 -174 0
-2 -198 0
-21 -43 0
-21 -65 0
-21 -106 0
-21 -130 0
-21 -152 0
-21 -174 0
-21 -198 0
-43 -65 0
-43 -106 0
-43 -130 0
-43 -152 0
-43 -174 0
-43 -198 0
-65 -106 0
-65 -130 0
-65 -152 0
-65 -174 0
-65 -198 0
-106 -130 0
-106 -152 0
-106 -174 0
-106 -198 0
-130 -152 0
-130 -174 0
-130 -198 0
-152 -174 0
-152 -198 0
-174 -198 0
-3 -22 0
-3 -44 0
-3 -66 0
-3 -87 0
-3 -107 0
-3 -131 0
-3 -199 0
-22 -44 0
-22 -66 0
-22 -87 0
-22 -107 0
-22 -131 0
-22 -199 0
-44 -66 0
-44 -87 0
-44 -107 0
-44 -131 0
-44 -199 0
-66 -87 0
-66 -107 0
-66 -131 0
-66 -199 0
-87 -107 0
-87 -131 0
-87 -199 0
-107 -131 0
-107 -199 0
-131 -199 0
-4 -23 0
-4 -45 0
-4 -67 0
-4 -108 0
-4 -132 0
-4 -153 0
-4 -175 0
-4 -200 0
-23 -45 0
-23 -67 0
-23 -108 0
-23 -132 0
-23 -153 0
-23 -175 0
-23 -200 0
-45 -67 0
-45 -108 0
-45 -132 0
-45 -153 0
-45 -175 0
-45 -200 0
-67 -108 0
-67 -132 0
-67 -153 0
-67 -175 0
-67 -200 0
-108 -132 0
-108 -153 0
-108 -175 0
-108 -200 0
-132 -153 0
-132 -175 0
-132 -200 0
-153 -175 0
-153 -200 0
-175 -200 0
-5 -24 0
-5 -46 0
-5 -68 0
-5 -109 0
-5 -133 0
-5 -154 0
-5 -176 0
-24 -46 0
-24 -68 0
-24 -109 0
-24 -133 0
-24 -154 0
-24 -176 0
-46 -68 0
-46 -109 0
-46 -133 0
-46 -154 0
-46 -176 0
-68 -109 0
-68 -133 0
-68 -154 0
-68 -176 0
-109 -133 0
-109 -154 0
-109 -176 0
-133 -154 0
-133 -176 0
-154 -176 0
-25 -47 0
-25 -69 0
-25 -88 0
-25 -110 0
-25 -134 0
-25 -155 0
-25 -177 0
-25 -201 0
-47 -69 0
-47 -88 0
-47 -110 0
-47 -134 0
-47 -155 0
-47 -177 0
-47 -201 0
-69 -88 0
-69 -110 0
-69 -134 0
-69 -155 0
-69 -177 0
-69 -201 0
-88 -110 0
-88 -134 0
-88 -155 0
-88 -177 0
-88 -201 0
-110 -134 0
-110 -155 0
-110 -177 0
-110 -201 0
-134 -155 0
-134 -177 0
-134 -201 0
-155 -177 0
-155 -201 0
-177 -201 0
-6 -26 0
-6 -48 0
-6 -70 0
-6 -89 0
-6 -111 0
-6 -135 0
-6 -156 0
-6 -178 0
-26 -48 0
-26 -70 0
-26 -89 0
-26 -111 0
-26 -135 0
-26 -156 0
-26 -178 0
-48 -70 0
-48 -89 0
-48 -111 0
-48 -135 0
-48 -156 0
-48 -178 0
-70 -89 0
-70 -111 0
-70 -135 0
-70 -156 0
-70 -178 0
-89 -111 0
-89 -135 0
-89 -156 0
-89 -178 0
-111 -135 0
-111 -156 0
-111 -178 0
-135 -156 0
-135 -178 0
-156 -178 0
-27 -49 0
-27 -71 0
-27 -90 0
-27 -112 0
-27 -157 0
-27 -179 0
-27 -202 0
-49 -71 0
-49 -90 0
-49 -112 0
-49 -157 0
-49 -179 0
-49 -202 0
-71 -90 0
-71 -112 0
-71 -157 0
-71 -179 0
-71 -202 0
-90 -112 0
-90 -157 0
-90 -179 0
-90 -202 0
-112 -157 0
-112 -179 0
-112 -202 0
-157 -179 0
-157 -202 0
-179 -202 0
-28 -50 0
-28 -72 0
-28 -91 0
-28 -113 0
-28 -136 0
-28 -158 0
-28 -180 0
-28 -203 0
-50 -72 0
-50 -91 0
-50 -113 0
-50 -136 0
-50 -158 0
-50 -180 0
-50 -203 0
-72 -91 0
-72 -113 0
-72 -136 0
-72 -158 0
-72 -180 0
-72 -203 0
-91 -113 0
-91 -136 0
-91 -158 0
-91 -180 0
-91 -203 0
-113 -136 0
-113 -158 0
-113 -180 0
-113 -203 0
-136 -158 0
-136 -180 0
-136 -203 0
-158 -180 0
-158 -203 0
-180 -203 0
-7 -29 0
-7 -51 0
-7 -73 0
-7 -92 0
-7 -114 0
-7 -137 0
-7 -159 0
-7 -181 0
-7 -204 0
-29 -51 0
-29 -73 0
-29 -92 0
-29 -114 0
-29 -137 0
-29 -159 0
-29 -181 0
-29 -204 0
-51 -73 0
-51 -92 0
-51 -114 0
-51 -137 0
-51 -159 0
-51 -181 0
-51 -204 0
-73 -92 0
-73 -114 0
-73 -137 0
-73 -159 0
-73 -181 0
-73 -204 0
-92 -114 0
-92 -137 0
-92 -159 0
-92 -181 0
-92 -204 0
-114 -137 0
-114 -159 0
-114 -181 0
-114 -204 0
-137 -159 0
-137 -181 0
-137 -204 0
-159 -181 0
-159 -204 0
-181 -204 0
-8 -30 0
-8 -93 0
-8 -138 0
-8 -160 0
-8 -182 0
-8 -205 0
-30 -93 0
-30 -138 0
-30 -160 0
-30 -182 0
-30 -205 0
-93 -138 0
-93 -160 0
-93 -182 0
-93 -205 0
-138 -160 0
-138 -182 0
-138 -205 0
-160 -182 0
-160 -205 0
-182 -205 0
-9 -31 0
-9 -52 0
-9 -74 0
-9 -115 0
-9 -139 0
-9 -161 0
-9 -183 0
-9 -206 0
-31 -52 0
-31 -74 0
-31 -115 0
-31 -139 0
-31 -161 0
-31 -183 0
-31 -206 0
-52 -74 0
-52 -115 0
-52 -139 0
-52 -161 0
-52 -183 0
-52 -206 0
-74 -115 0
-74 -139 0
-74 -161 0
-74 -183 0
-74 -206 0
-115 -139 0
-115 -161 0
-115 -183 0
-115 -206 0
-139 -161 0
-139 -183 0
-139 -206 0
-161 -183 0
-161 -206 0
-183 -206 0
-10 -32 0
-10 -53 0
-10 -75 0
-10 -94 0
-10 -116 0
-10 -140 0
-10 -184 0
-10 -207 0
-32 -53 0
-32 -75 0
-32 -94 0
-32 -116 0
-32 -140 0
-32 -184 0
-32 -207 0
-53 -75 0
-53 -94 0
-53 -116 0
-53 -140 0
-53 -184 0
-53 -207 0
-75 -94 0
-75 -116 0
-75 -140 0
-75 -184 0
-75 -207 0
-94 -116 0
-94 -140 0
-94 -184 0
-94 -207 0
-116 -140 0
-116 -184 0
-116 -207 0
-140 -184 0
-140 -207 0
-184 -207 0
-11 -33 0
-11 -54 0
-11 -76 0
-11 -117 0
-11 -141 0
-11 -162 0
-11 -185 0
-33 -54 0
-33 -76 0
-33 -117 0
-33 -141 0
-33 -162 0
-33 -185 0
-54 -76 0
-54 -117 0
-54 -141 0
-54 -162 0
-54 -185 0
-76 -117 0
-76 -141 0
-76 -162 0
-76 -185 0
-117 -141 0
-117 -162 0
-117 -185 0
-141 -162 0
-141 -185 0
-162 -185 0
-12 -34 0
-12 -55 0
-12 -77 0
-12 -95 0
-12 -118 0
-12 -142 0
-12 -163 0
-12 -186 0
-12 -208 0
-34 -55 0
-34 -77 0
-34 -95 0
-34 -118 0
-34 -142 0
-34 -163 0
-34 -186 0
-34 -208 0
-55 -77 0
-55 -95 0
-55 -118 0
-55 -142 0
-55 -163 0
-55 -186 0
-55 -208 0
-77 -95 0
-77 -118 0
-77 -142 0
-77 -163 0
-77 -186 0
-77 -208 0
-95 -118 0
-95 -142 0
-95 -163 0
-95 -186 0
-95 -208 0
-118 -142 0
-118 -163 0
-118 -186 0
-118 -208 0
-142 -163 0
-142 -186 0
-142 -208 0
-163 -186 0
-163 -208 0
-186 -208 0
-13 -35 0
-13 -78 0
-13 -96 0
-13 -119 0
-13 -143 0
-13 -164 0
-13 -187 0
-13 -209 0
-35 -78 0
-35 -96 0
-35 -119 0
-35 -143 0
-35 -164 0
-35 -187 0
-35 -209 0
-78 -96 0
-78 -119 0
-78 -143 0
-78 -164 0
-78 -187 0
-78 -209 0
-96 -119 0
-96 -143 0
-96 -164 0
-96 -187 0
-96 -209 0
-119 -143 0
-119 -164 0
-119 -187 0
-119 -209 0
-143 -164 0
-143 -187 0
-143 -209 0
-164 -187 0
-164 -209 0
-187 -209 0
-14 -56 0
-14 -79 0
-14 -97 0
-14 -120 0
-14 -144 0
-14 -165 0
-14 -188 0
-14 -210 0
-56 -79 0
-56 -97 0
-56 -120 0
-56 -144 0
-56 -165 0
-56 -188 0
-56 -210 0
-79 -97 0
-79 -120 0
-79 -144 0
-79 -165 0
-79 -188 0
-79 -210 0
-97 -120 0
-97 -144 0
-97 -165 0
-97 -188 0
-97 -210 0
-120 -144 0
-120 -165 0
-120 -188 0
-120 -210 0
-144 -165 0
-144 -188 0
-144 -210 0
-165 -188 0
-165 -210 0
-188 -210 0
-57 -80 0
-57 -98 0
-57 -121 0
-57 -145 0
-57 -166 0
-57 -189 0
-57 -211 0
-80 -98 0
-80 -121 0
-80 -145 0
-80 -166 0
-80 -189 0
-80 -211 0
-98 -121 0
-98 -145 0
-98 -166 0
-98 -189 0
-98 -211 0
-121 -145 0
-121 -166 0
-121 -189 0
-121 -211 0
-145 -166 0
-145 -189 0
-145 -211 0
-166 -189 0
-166 -211 0
-189 -211 0
-15 -36 0
-15 -58 0
-15 -81 0
-15 -99 0
-15 -122 0
-15 -146 0
-15 -167 0
-15 -190 0
-15 -212 0
-36 -58 0
-36 -81 0
-36 -99 0
-36 -122 0
-36 -146 0
-36 -167 0
-36 -190 0
-36 -212 0
-58 -81 0
-58 -99 0
-58 -122 0
-58 -146 0
-58 -167 0
-58 -190 0
-58 -212 0
-81 -99 0
-81 -122 0
-81 -146 0
-81 -167 0
-81 -190 0
-81 -212 0
-99 -122 0
-99 -146 0
-99 -167 0
-99 -190 0
-99 -212 0
-122 -146 0
-122 -167 0
-122 -190 0
-122 -212 0
-146 -167 0
-146 -190 0
-146 -212 0
-167 -190 0
-167 -212 0
-190 -212 0
-16 -37 0
-16 -59 0
-16 -100 0
-16 -123 0
-16 -147 0
-16 -168 0
-16 -191 0
-16 -213 0
-37 -59 0
-37 -100 0
-37 -123 0
-37 -147 0
-37 -168 0
-37 -191 0
-37 -213 0
-59 -100 0
-59 -123 0
-59 -147 0
-59 -168 0
-59 -191 0
-59 -213 0
-100 -123 0
-100 -147 0
-100 -168 0
-100 -191 0
-100 -213 0
-123 -147 0
-123 -168 0
-123 -191 0
-123 -213 0
-147 -168 0
-147 -191 0
-147 -213 0
-168 -191 0
-168 -213 0
-191 -213 0
-17 -38 0
-17 -82 0
-17 -124 0
-17 -169 0
-17 -192 0
-17 -214 0
-38 -82 0
-38 -124 0
-38 -169 0
-38 -192 0
-38 -214 0
-82 -124 0
-82 -169 0
-82 -192 0
-82 -214 0
-124 -169 0
-124 -192 0
-124 -214 0
-169 -192 0
-169 -214 0
-192 -214 0
-60 -83 0
-60 -101 0
-60 -125 0
-60 -148 0
-60 -170 0
-60 -193 0
-60 -215 0
-83 -101 0
-83 -125 0
-83 -148 0
-83 -170 0
-83 -193 0
-83 -215 0
-101 -125 0
-101 -148 0
-101 -170 0
-101 -193 0
-101 -215 0
-125 -148 0
-125 -170 0
-125 -193 0
-125 -215 0
-148 -170 0
-148 -193 0
-148 -215 0
-170 -193 0
-170 -215 0
-193 -215 0
-18 -39 0
-18 -61 0
-18 -84 0
-18 -102 0
-18 -126 0
-18 -149 0
-18 -194 0
-18 -216 0
-39 -61 0
-39 -84 0
-39 -102 0
-39 -126 0
-39 -149 0
-39 -194 0
-39 -216 0
-61 -84 0
-61 -102 0
-61 -126 0
-61 -149 0
-61 -194 0
-61 -216 0
-84 -102 0
-84 -126 0
-84 -149 0
-84 -194 0
-84 -216 0
-102 -126 0
-102 -149 0
-102 -194 0
-102 -216 0
-126 -149 0
-126 -194 0
-126 -216 0
-149 -194 0
-149 -216 0
-194 -216 0
-19 -40 0
-19 -62 0
-19 -103 0
-19 -127 0
-19 -171 0
-19 -195 0
-19 -217 0
-40 -62 0
-40 -103 0
-40 -127 0
-40 -171 0
-40 -195 0
-40 -217 0
-62 -103 0
-62 -127 0
-62 -171 0
-62 -195 0
-62 -217 0
-103 -127 0
-103 -171 0
-103 -195 0
-103 -217 0
-127 -171 0
-127 -195 0
-127 -217 0
-171 -195 0
-171 -217 0
-195 -217 0
-41 -63 0
-41 -85 0
-41 -104 0
-41 -128 0
-41 -150 0
-41 -172 0
-41 -196 0
-41 -218 0
-63 -85 0
-63 -104 0
-63 -128 0
-63 -150 0
-63 -172 0
-63 -196 0
-63 -218 0
-85 -104 0
-85 -128 0
-85 -150 0
-85 -172 0
-85 -196 0
-85 -218 0
-104 -128 0
-104 -150 0
-104 -172 0
-104 -196 0
-104 -218 0
-128 -150 0
-128 -172 0
-128 -196 0
-128 -218 0
-150 -172 0
-150 -196 0
-150 -218 0
-172 -196 0
-172 -218 0
-196 -218 0